Clp0006I 0  Obj 0 Primal inf 999.9999 (1000) Dual inf 6888500 (250000)
Clp0006I 200  Obj -4180454 Primal inf 304540 (1000)
Clp0006I 400  Obj -1434011 Primal inf 108495 (1000)
Clp0006I 600  Obj -25844 Primal inf 13231 (993)
Clp0006I 702  Obj -25706 Primal inf 14079 (991)
Clp0006I 783  Obj -25706 Primal inf 30838 (991)
Clp0006I 872  Obj -25706 Primal inf 34695 (989)
Clp0006I 978  Obj -25706 Primal inf 44949 (986)
Clp0006I 1075  Obj -25706 Primal inf 39380 (985)
Clp0006I 1174  Obj -25706 Primal inf 30567 (983)
Clp0006I 1278  Obj -25706 Primal inf 39456 (986)
Clp0006I 1379  Obj -25706 Primal inf 46316 (982)
Clp0006I 1487  Obj -25706 Primal inf 76859 (985)
Clp0006I 1588  Obj -25706 Primal inf 36360 (985)
Clp0006I 1693  Obj -25706 Primal inf 57074 (985)
Clp0006I 1792  Obj -25706 Primal inf 47804 (983)
Clp0006I 1898  Obj -25706 Primal inf 51688 (982)
Clp0006I 2001  Obj -25706 Primal inf 59672 (986)
Clp0006I 2104  Obj -25706 Primal inf 37999 (987)
Clp0006I 2214  Obj -25706 Primal inf 48534 (985)
Clp0006I 2311  Obj -25706 Primal inf 48658 (986)
Clp0006I 2412  Obj -25706 Primal inf 29756 (987)
Clp0006I 2514  Obj -25706 Primal inf 46071 (989)
Clp0006I 2611  Obj -25706 Primal inf 32921 (990)
Clp0006I 2711  Obj -25706 Primal inf 32327 (987)
Clp0006I 2820  Obj -25706 Primal inf 35218 (984)
Clp0006I 2920  Obj -25706 Primal inf 43741 (984)
Clp0006I 3026  Obj -25706 Primal inf 40875 (981)
Clp0006I 3131  Obj -25706 Primal inf 46509 (976)
Clp0006I 3229  Obj -25706 Primal inf 39958 (973)
Clp0006I 3324  Obj -25706 Primal inf 31556 (971)
Clp0006I 3428  Obj -25706 Primal inf 36635 (971)
Clp0006I 3528  Obj -25706 Primal inf 46126 (962)
Clp0006I 3619  Obj -25706 Primal inf 41686 (968)
Clp0006I 3718  Obj -25706 Primal inf 40617 (961)
Clp0006I 3813  Obj -25706 Primal inf 36819 (959)
Clp0006I 3915  Obj -25706 Primal inf 52831 (968)
Clp0006I 4007  Obj -25706 Primal inf 26902 (962)
Clp0006I 4115  Obj -25706 Primal inf 36822 (961)
Clp0006I 4212  Obj -25706 Primal inf 26025 (960)
Clp0006I 4317  Obj -25706 Primal inf 61583 (958)
Clp0006I 4416  Obj -25706 Primal inf 45924 (959)
Clp0006I 4506  Obj -25706 Primal inf 45239 (961)
Clp0006I 4605  Obj -25706 Primal inf 22738 (955)
Clp0006I 4705  Obj -25706 Primal inf 38792 (956)
Clp0006I 4808  Obj -25706 Primal inf 31047 (956)
Clp0006I 4910  Obj -25706 Primal inf 28436 (956)
Clp0006I 5013  Obj -25706 Primal inf 30277 (958)
Clp0006I 5122  Obj -25706 Primal inf 39716 (950)
Clp0006I 5222  Obj -25706 Primal inf 30485 (948)
Clp0006I 5323  Obj -25706 Primal inf 26693 (944)
Clp0006I 5424  Obj -25706 Primal inf 20826 (945)
Clp0006I 5523  Obj -25706 Primal inf 22237 (939)
Clp0006I 5631  Obj -25668 Primal inf 36499 (932)
Clp0006I 5719  Obj -25668 Primal inf 38237 (925)
Clp0006I 5802  Obj -25668 Primal inf 47247 (918)
Clp0006I 5888  Obj -25668 Primal inf 43284 (921)
Clp0006I 5978  Obj -25668 Primal inf 33365 (919)
Clp0006I 6075  Obj -25668 Primal inf 34301 (910)
Clp0006I 6169  Obj -25668 Primal inf 51988 (913)
Clp0006I 6260  Obj -25668 Primal inf 52125 (902)
Clp0006I 6346  Obj -25668 Primal inf 45389 (896)
Clp0006I 6432  Obj -25668 Primal inf 25750 (888)
Clp0006I 6517  Obj -25635 Primal inf 39949 (883)
Clp0006I 6609  Obj -25635 Primal inf 39860 (880)
Clp0006I 6696  Obj -25635 Primal inf 41934 (885)
Clp0006I 6779  Obj -25635 Primal inf 40440 (884)
Clp0006I 6864  Obj -25635 Primal inf 35059 (875)
Clp0006I 6960  Obj -25635 Primal inf 32205 (874)
Clp0006I 7050  Obj -25635 Primal inf 34103 (880)
Clp0006I 7135  Obj -25635 Primal inf 37894 (880)
Clp0006I 7219  Obj -25635 Primal inf 43725 (883)
Clp0006I 7303  Obj -25635 Primal inf 24662 (887)
Clp0006I 7396  Obj -25604 Primal inf 28239 (886)
Clp0006I 7480  Obj -25582 Primal inf 21473 (877)
Clp0006I 7570  Obj -25016 Primal inf 21387 (863)
Clp0006I 7659  Obj -25016 Primal inf 13533 (852)
Clp0006I 7747  Obj -25016 Primal inf 21897 (854)
Clp0006I 7844  Obj -25016 Primal inf 22711 (843)
Clp0006I 7937  Obj -25016 Primal inf 17693 (843)
Clp0006I 8027  Obj -25016 Primal inf 22072 (832)
Clp0006I 8123  Obj -25016 Primal inf 31276 (834)
Clp0006I 8209  Obj -25016 Primal inf 25085 (824)
Clp0006I 8299  Obj -25016 Primal inf 27009 (825)
Clp0006I 8391  Obj -25016 Primal inf 18521 (808)
Clp0006I 8480  Obj -25016 Primal inf 23348 (801)
Clp0006I 8566  Obj -25016 Primal inf 10483 (799)
Clp0006I 8688  Obj -25000 Primal inf 7804.9999 (777)
Clp0006I 8788  Obj -25000 Primal inf 6530.9999 (783)
Clp0006I 8876  Obj -25000 Primal inf 7121.9999 (769)
Clp0006I 8981  Obj -25000 Primal inf 4400.9999 (759)
Clp0006I 9103  Obj -25000 Primal inf 4149.9999 (739)
Clp0006I 9207  Obj -25000 Primal inf 4712.9999 (738)
Clp0006I 9307  Obj -25000 Primal inf 5604.9999 (750)
Clp0006I 9393  Obj -25000 Primal inf 4698.9999 (743)
Clp0006I 9493  Obj -25000 Primal inf 6418.9999 (727)
Clp0006I 9587  Obj -25000 Primal inf 4871.9999 (711)
Clp0006I 9715  Obj -25000 Primal inf 3053.9999 (702)
Clp0006I 9818  Obj -25000 Primal inf 6350.9999 (701)
Clp0006I 9908  Obj -25000 Primal inf 7241.9999 (695)
Clp0006I 10002  Obj -25000 Primal inf 6645.9999 (689)
Clp0006I 10101  Obj -25000 Primal inf 6981.9999 (664)
Clp0006I 10200  Obj -25000 Primal inf 5902.9999 (666)
Clp0006I 10306  Obj -25000 Primal inf 6257.9999 (652)
Clp0006I 10398  Obj -25000 Primal inf 4953.9999 (649)
Clp0006I 10501  Obj -25000 Primal inf 5708.9999 (640)
Clp0006I 10597  Obj -25000 Primal inf 2903.9999 (621)
Clp0006I 10713  Obj -25000 Primal inf 3414.9999 (630)
Clp0006I 10795  Obj -25000 Primal inf 2367.9999 (625)
Clp0006I 10895  Obj -25000 Primal inf 3240.9999 (634)
Clp0006I 11011  Obj -25000 Primal inf 2143.9999 (620)
Clp0006I 11122  Obj -25000 Primal inf 2637.9999 (609)
Clp0006I 11213  Obj -25000 Primal inf 3835.9999 (602)
Clp0006I 11299  Obj -25000 Primal inf 2172.9999 (583)
Clp0006I 11418  Obj -25000 Primal inf 2026.9999 (565)
Clp0006I 11530  Obj -25000 Primal inf 1299.9999 (540)
Clp0006I 11647  Obj -25000 Primal inf 1227.9999 (521)
Clp0006I 11754  Obj -25000 Primal inf 2189 (494)
Clp0006I 11838  Obj -25000 Primal inf 2811 (498)
Clp0006I 11930  Obj -25000 Primal inf 1419 (476)
Clp0006I 12022  Obj -25000 Primal inf 1845 (468)
Clp0006I 12103  Obj -25000 Primal inf 2078 (449)
Clp0006I 12183  Obj -25000 Primal inf 1299 (454)
Clp0006I 12274  Obj -25000 Primal inf 1314 (443)
Clp0006I 12357  Obj -25000 Primal inf 1114 (433)
Clp0006I 12459  Obj -25000 Primal inf 1206 (394)
Clp0006I 12564  Obj -25000 Primal inf 1035 (396)
Clp0006I 12668  Obj -25000 Primal inf 1060 (372)
Clp0006I 12759  Obj -25000 Primal inf 1126 (352)
Clp0006I 12859  Obj -25000 Primal inf 605.99997 (257)
Clp0006I 12958  Obj -25000 Primal inf 464.99998 (215)
Clp0006I 13052  Obj -25000 Primal inf 340.99998 (187)
Clp0006I 13155  Obj -25000 Primal inf 427.99999 (131)
Clp0006I 13246  Obj -25000 Primal inf 397.99999 (143)
Clp0006I 13332  Obj -25000 Primal inf 100.99999 (75)
Clp0006I 13436  Obj -25000 Primal inf 80.999994 (56)
Clp0006I 13538  Obj -25000 Primal inf 28.999997 (25)
Clp0006I 13646  Obj -25000 Primal inf 28.999997 (26)
Clp0006I 13685  Obj -25000
Clp0000I Optimal - objective value -25000
Clp0000I Optimal - objective value -25000
Node 0 depth 0 unsatisfied 0 sum 0 obj -25000 guess -25000 branching on -1
Clp0000I Optimal - objective value -25000
Cbc0004I Integer solution of -25000 found after 0 iterations and 0 nodes (30.88 seconds)
Cbc0001I Search completed - best objective -25000, took 0 iterations and 0 nodes (30.97 seconds)
Cbc0035I Maximum depth 0, 0 variables fixed on reduced cost
Clp0000I Optimal - objective value -25000
Clp0000I Optimal - objective value -25000
x_319 = 1
x_585 = 1
x_1320 = 1
x_1743 = 1
x_2176 = 1
x_2722 = 1
x_3112 = 1
x_3686 = 1
x_4266 = 1
x_4928 = 1
x_5344 = 1
x_5994 = 1
x_6269 = 1
x_6691 = 1
x_7475 = 1
x_7789 = 1
x_8258 = 1
x_8798 = 1
x_9343 = 1
x_9625 = 1
x_10403 = 1
x_10745 = 1
x_11117 = 1
x_11900 = 1
x_12153 = 1
x_12699 = 1
x_13296 = 1
x_13902 = 1
x_14299 = 1
x_14611 = 1
x_15268 = 1
x_15649 = 1
x_16427 = 1
x_16869 = 1
x_17331 = 1
x_17933 = 1
x_18249 = 1
x_18816 = 1
x_19283 = 1
x_19785 = 1
x_20154 = 1
x_20637 = 1
x_21280 = 1
x_21548 = 1
x_22052 = 1
x_22573 = 1
x_23057 = 1
x_23705 = 1
x_24251 = 1
x_24645 = 1
x_25456 = 1
x_25973 = 1
x_26100 = 1
x_26528 = 1
x_27131 = 1
x_27727 = 1
x_28165 = 1
x_28850 = 1
x_29256 = 1
x_29690 = 1
x_30392 = 1
x_30737 = 1
x_31294 = 1
x_31719 = 1
x_32308 = 1
x_32886 = 1
x_33312 = 1
x_33526 = 1
x_34195 = 1
x_34771 = 1
x_35086 = 1
x_35533 = 1
x_36043 = 1
x_36650 = 1
x_37147 = 1
x_37588 = 1
x_38089 = 1
x_38795 = 1
x_39486 = 1
x_39667 = 1
x_40337 = 1
x_40773 = 1
x_41461 = 1
x_41895 = 1
x_42276 = 1
x_42673 = 1
x_43062 = 1
x_43752 = 1
x_44387 = 1
x_44694 = 1
x_45035 = 1
x_45574 = 1
x_46156 = 1
x_46640 = 1
x_47238 = 1
x_47542 = 1
x_48123 = 1
x_48733 = 1
x_49301 = 1
x_49601 = 1
x_50495 = 1
x_50709 = 1
x_51274 = 1
x_51648 = 1
x_52453 = 1
x_52759 = 1
x_53158 = 1
x_53753 = 1
x_54250 = 1
x_54787 = 1
x_55332 = 1
x_55946 = 1
x_56046 = 1
x_56544 = 1
x_57216 = 1
x_57624 = 1
x_58275 = 1
x_58607 = 1
x_59170 = 1
x_59503 = 1
x_60025 = 1
x_60908 = 1
x_61155 = 1
x_61595 = 1
x_62102 = 1
x_62584 = 1
x_63109 = 1
x_63583 = 1
x_64076 = 1
x_64720 = 1
x_65121 = 1
x_65788 = 1
x_66133 = 1
x_66919 = 1
x_67183 = 1
x_67875 = 1
x_68164 = 1
x_68905 = 1
x_69087 = 1
x_69698 = 1
x_70021 = 1
x_70569 = 1
x_71409 = 1
x_71641 = 1
x_72353 = 1
x_72684 = 1
x_73075 = 1
x_73615 = 1
x_74197 = 1
x_74541 = 1
x_75228 = 1
x_75610 = 1
x_76079 = 1
x_76833 = 1
x_77166 = 1
x_77815 = 1
x_78240 = 1
x_78852 = 1
x_79326 = 1
x_79760 = 1
x_80122 = 1
x_80687 = 1
x_81204 = 1
x_81571 = 1
x_82328 = 1
x_82711 = 1
x_83311 = 1
x_83534 = 1
x_84177 = 1
x_84791 = 1
x_85286 = 1
x_85889 = 1
x_86108 = 1
x_86938 = 1
x_87055 = 1
x_87558 = 1
x_88236 = 1
x_88678 = 1
x_89201 = 1
x_89772 = 1
x_90247 = 1
x_90685 = 1
x_91206 = 1
x_91510 = 1
x_92053 = 1
x_92634 = 1
x_93113 = 1
x_93513 = 1
x_94017 = 1
x_94731 = 1
x_95065 = 1
x_95593 = 1
x_96281 = 1
x_96763 = 1
x_97152 = 1
x_97809 = 1
x_98000 = 1
x_98540 = 1
x_99200 = 1
x_99514 = 1
x_100136 = 1
x_100883 = 1
x_101267 = 1
x_101715 = 1
x_102181 = 1
x_102550 = 1
x_103032 = 1
x_103563 = 1
x_104234 = 1
x_104848 = 1
x_105229 = 1
x_105590 = 1
x_106323 = 1
x_106527 = 1
x_107317 = 1
x_107702 = 1
x_108208 = 1
x_108782 = 1
x_109130 = 1
x_109682 = 1
x_110082 = 1
x_110551 = 1
x_111341 = 1
x_111847 = 1
x_112104 = 1
x_112554 = 1
x_113001 = 1
x_113825 = 1
x_114235 = 1
x_114765 = 1
x_115358 = 1
x_115746 = 1
x_116157 = 1
x_116566 = 1
x_117366 = 1
x_117680 = 1
x_118213 = 1
x_118674 = 1
x_119103 = 1
x_119660 = 1
x_120169 = 1
x_120523 = 1
x_121330 = 1
x_121924 = 1
x_122441 = 1
x_122536 = 1
x_123394 = 1
x_123744 = 1
x_124398 = 1
x_124707 = 1
x_125047 = 1
x_125538 = 1
x_126310 = 1
x_126824 = 1
x_127091 = 1
x_127838 = 1
x_128120 = 1
x_128805 = 1
x_129416 = 1
x_129598 = 1
x_130005 = 1
x_130672 = 1
x_131380 = 1
x_131616 = 1
x_132336 = 1
x_132559 = 1
x_133135 = 1
x_133662 = 1
x_134313 = 1
x_134910 = 1
x_135161 = 1
x_135663 = 1
x_136080 = 1
x_136911 = 1
x_137355 = 1
x_137721 = 1
x_138261 = 1
x_138646 = 1
x_139139 = 1
x_139693 = 1
x_140159 = 1
x_140732 = 1
x_141370 = 1
x_141507 = 1
x_142449 = 1
x_142545 = 1
x_143020 = 1
x_143954 = 1
x_144196 = 1
x_144511 = 1
x_145188 = 1
x_145952 = 1
x_146144 = 1
x_146596 = 1
x_147270 = 1
x_147515 = 1
x_148225 = 1
x_148965 = 1
x_149018 = 1
x_149856 = 1
x_150168 = 1
x_150723 = 1
x_151329 = 1
x_151884 = 1
x_152417 = 1
x_152597 = 1
x_153321 = 1
x_153857 = 1
x_154413 = 1
x_154754 = 1
x_155092 = 1
x_155561 = 1
x_156175 = 1
x_156945 = 1
x_157129 = 1
x_157577 = 1
x_158016 = 1
x_158560 = 1
x_159212 = 1
x_159519 = 1
x_160218 = 1
x_160628 = 1
x_161248 = 1
x_161638 = 1
x_162262 = 1
x_162778 = 1
x_163002 = 1
x_163710 = 1
x_164106 = 1
x_164957 = 1
x_165379 = 1
x_165757 = 1
x_166024 = 1
x_166651 = 1
x_167439 = 1
x_167790 = 1
x_168497 = 1
x_168567 = 1
x_169171 = 1
x_169976 = 1
x_170224 = 1
x_170974 = 1
x_171230 = 1
x_171703 = 1
x_172072 = 1
x_172504 = 1
x_173142 = 1
x_173922 = 1
x_174314 = 1
x_174618 = 1
x_175390 = 1
x_175868 = 1
x_176022 = 1
x_176568 = 1
x_177214 = 1
x_177996 = 1
x_178362 = 1
x_178839 = 1
x_179132 = 1
x_179537 = 1
x_180119 = 1
x_180512 = 1
x_181114 = 1
x_181739 = 1
x_182460 = 1
x_182800 = 1
x_183393 = 1
x_183860 = 1
x_184327 = 1
x_184849 = 1
x_185483 = 1
x_185999 = 1
x_186008 = 1
x_186679 = 1
x_187189 = 1
x_187777 = 1
x_188367 = 1
x_188846 = 1
x_189031 = 1
x_189803 = 1
x_190361 = 1
x_190885 = 1
x_191226 = 1
x_191984 = 1
x_192006 = 1
x_192802 = 1
x_193414 = 1
x_193539 = 1
x_194448 = 1
x_194581 = 1
x_195009 = 1
x_195564 = 1
x_196304 = 1
x_196859 = 1
x_197480 = 1
x_197901 = 1
x_198429 = 1
x_198888 = 1
x_199492 = 1
x_199947 = 1
x_200340 = 1
x_200741 = 1
x_201094 = 1
x_201932 = 1
x_202255 = 1
x_202605 = 1
x_203099 = 1
x_203907 = 1
x_204399 = 1
x_204970 = 1
x_205192 = 1
x_205963 = 1
x_206418 = 1
x_206845 = 1
x_207143 = 1
x_207897 = 1
x_208342 = 1
x_208977 = 1
x_209292 = 1
x_209926 = 1
x_210056 = 1
x_210988 = 1
x_211264 = 1
x_211578 = 1
x_212365 = 1
x_212990 = 1
x_213451 = 1
x_213806 = 1
x_214335 = 1
x_214971 = 1
x_215322 = 1
x_215930 = 1
x_216391 = 1
x_216942 = 1
x_217373 = 1
x_217784 = 1
x_218462 = 1
x_218530 = 1
x_219377 = 1
x_219936 = 1
x_220378 = 1
x_220959 = 1
x_221458 = 1
x_221797 = 1
x_222307 = 1
x_222742 = 1
x_223479 = 1
x_223931 = 1
x_224404 = 1
x_224943 = 1
x_225364 = 1
x_225969 = 1
x_226491 = 1
x_226906 = 1
x_227425 = 1
x_227874 = 1
x_228440 = 1
x_228854 = 1
x_229127 = 1
x_229978 = 1
x_230334 = 1
x_230923 = 1
x_231464 = 1
x_231915 = 1
x_232434 = 1
x_232912 = 1
x_233482 = 1
x_233872 = 1
x_234489 = 1
x_234851 = 1
x_235363 = 1
x_235779 = 1
x_236126 = 1
x_236570 = 1
x_237371 = 1
x_237950 = 1
x_238376 = 1
x_238529 = 1
x_239487 = 1
x_239966 = 1
x_240455 = 1
x_240968 = 1
x_241435 = 1
x_241937 = 1
x_242444 = 1
x_242921 = 1
x_243493 = 1
x_243818 = 1
x_244485 = 1
x_244920 = 1
x_245498 = 1
x_245793 = 1
x_246396 = 1
x_246981 = 1
x_247217 = 1
x_247882 = 1
x_248472 = 1
x_248549 = 1
x_249467 = 1
x_249881 = 1
real 0m32,335s user 0m32,134s sys 0m0,164s
